p cnf 100 1
100 0
w 1 0.81796
w 2 1 0
w 2 -1 1
w 3 2 1
w 3 -2 0
w 4 3 1
w 4 -3 0
w 5 4 0
w 5 -4 1
w 6 5 0
w 6 -5 1
w 7 6 0.0109104
w 7 -6 0.409916
w 8 7 1
w 8 -7 0
w 9 8 1
w 9 -8 0
w 10 9 1
w 10 -9 0
w 11 1 1
w 11 -1 0
w 12 11 2 0
w 12 11 -2 1
w 12 -11 2 0
w 12 -11 -2 1
w 13 12 3 0
w 13 12 -3 0
w 13 -12 3 1
w 13 -12 -3 0
w 14 13 4 1
w 14 13 -4 1
w 14 -13 4 1
w 14 -13 -4 0
w 15 14 5 1
w 15 14 -5 1
w 15 -14 5 1
w 15 -14 -5 0
w 16 15 6 0.88226
w 16 15 -6 0.0208244
w 16 -15 6 0.296273
w 16 -15 -6 0.529201
w 17 16 7 0.394029
w 17 16 -7 0.716611
w 17 -16 7 0.462787
w 17 -16 -7 0.787082
w 18 17 8 0
w 18 17 -8 0
w 18 -17 8 1
w 18 -17 -8 1
w 19 18 9 1
w 19 18 -9 0
w 19 -18 9 1
w 19 -18 -9 1
w 20 19 10 0.587895
w 20 19 -10 0.534702
w 20 -19 10 0.202462
w 20 -19 -10 0.00869003
w 21 11 1
w 21 -11 0
w 22 21 12 0.502803
w 22 21 -12 0.660705
w 22 -21 12 0.840392
w 22 -21 -12 0.385063
w 23 22 13 0
w 23 22 -13 1
w 23 -22 13 1
w 23 -22 -13 1
w 24 23 14 1
w 24 23 -14 0
w 24 -23 14 1
w 24 -23 -14 0
w 25 24 15 0
w 25 24 -15 1
w 25 -24 15 1
w 25 -24 -15 1
w 26 25 16 0.0342995
w 26 25 -16 0.531457
w 26 -25 16 0.339484
w 26 -25 -16 0.859989
w 27 26 17 0
w 27 26 -17 1
w 27 -26 17 0
w 27 -26 -17 1
w 28 27 18 0
w 28 27 -18 1
w 28 -27 18 1
w 28 -27 -18 1
w 29 28 19 1
w 29 28 -19 1
w 29 -28 19 0
w 29 -28 -19 1
w 30 29 20 0
w 30 29 -20 1
w 30 -29 20 1
w 30 -29 -20 1
w 31 21 1
w 31 -21 0
w 32 31 22 1
w 32 31 -22 0
w 32 -31 22 1
w 32 -31 -22 1
w 33 32 23 1
w 33 32 -23 0
w 33 -32 23 0
w 33 -32 -23 0
w 34 33 24 1
w 34 33 -24 1
w 34 -33 24 0
w 34 -33 -24 0
w 35 34 25 0
w 35 34 -25 0
w 35 -34 25 1
w 35 -34 -25 1
w 36 35 26 0.217184
w 36 35 -26 0.633632
w 36 -35 26 0.336798
w 36 -35 -26 0.0122458
w 37 36 27 1
w 37 36 -27 0
w 37 -36 27 0
w 37 -36 -27 1
w 38 37 28 0.137372
w 38 37 -28 0.682861
w 38 -37 28 0.883532
w 38 -37 -28 0.521973
w 39 38 29 1
w 39 38 -29 1
w 39 -38 29 0
w 39 -38 -29 1
w 40 39 30 1
w 40 39 -30 0
w 40 -39 30 1
w 40 -39 -30 1
w 41 31 0.408347
w 41 -31 0.888788
w 42 41 32 1
w 42 41 -32 1
w 42 -41 32 1
w 42 -41 -32 0
w 43 42 33 0
w 43 42 -33 1
w 43 -42 33 1
w 43 -42 -33 1
w 44 43 34 0.894532
w 44 43 -34 0.589866
w 44 -43 34 0.842301
w 44 -43 -34 0.0319041
w 45 44 35 1
w 45 44 -35 1
w 45 -44 35 0
w 45 -44 -35 0
w 46 45 36 0
w 46 45 -36 0
w 46 -45 36 0
w 46 -45 -36 1
w 47 46 37 0.794675
w 47 46 -37 0.876775
w 47 -46 37 0.762297
w 47 -46 -37 0.203022
w 48 47 38 0.0318317
w 48 47 -38 0.981305
w 48 -47 38 0.733102
w 48 -47 -38 0.300515
w 49 48 39 0.334273
w 49 48 -39 0.905996
w 49 -48 39 0.984484
w 49 -48 -39 0.441735
w 50 49 40 0
w 50 49 -40 1
w 50 -49 40 1
w 50 -49 -40 1
w 51 41 1
w 51 -41 0
w 52 51 42 1
w 52 51 -42 1
w 52 -51 42 1
w 52 -51 -42 0
w 53 52 43 0
w 53 52 -43 0
w 53 -52 43 1
w 53 -52 -43 1
w 54 53 44 0
w 54 53 -44 0
w 54 -53 44 1
w 54 -53 -44 0
w 55 54 45 0
w 55 54 -45 1
w 55 -54 45 1
w 55 -54 -45 0
w 56 55 46 1
w 56 55 -46 0
w 56 -55 46 0
w 56 -55 -46 1
w 57 56 47 0.400049
w 57 56 -47 0.253796
w 57 -56 47 0.118586
w 57 -56 -47 0.416711
w 58 57 48 1
w 58 57 -48 0
w 58 -57 48 0
w 58 -57 -48 0
w 59 58 49 1
w 59 58 -49 0
w 59 -58 49 0
w 59 -58 -49 0
w 60 59 50 1
w 60 59 -50 1
w 60 -59 50 0
w 60 -59 -50 0
w 61 51 0.600629
w 61 -51 0.426994
w 62 61 52 0
w 62 61 -52 1
w 62 -61 52 0
w 62 -61 -52 1
w 63 62 53 0.678855
w 63 62 -53 0.263868
w 63 -62 53 0.563971
w 63 -62 -53 0.0789038
w 64 63 54 1
w 64 63 -54 1
w 64 -63 54 1
w 64 -63 -54 0
w 65 64 55 0.40467
w 65 64 -55 0.0063127
w 65 -64 55 0.238737
w 65 -64 -55 0.268664
w 66 65 56 0.983074
w 66 65 -56 0.634066
w 66 -65 56 0.276833
w 66 -65 -56 0.866888
w 67 66 57 0
w 67 66 -57 0
w 67 -66 57 1
w 67 -66 -57 1
w 68 67 58 0
w 68 67 -58 1
w 68 -67 58 1
w 68 -67 -58 1
w 69 68 59 1
w 69 68 -59 0
w 69 -68 59 0
w 69 -68 -59 1
w 70 69 60 0
w 70 69 -60 0
w 70 -69 60 1
w 70 -69 -60 0
w 71 61 1
w 71 -61 0
w 72 71 62 0.537035
w 72 71 -62 0.1977
w 72 -71 62 0.963533
w 72 -71 -62 0.1711
w 73 72 63 1
w 73 72 -63 1
w 73 -72 63 0
w 73 -72 -63 1
w 74 73 64 1
w 74 73 -64 1
w 74 -73 64 1
w 74 -73 -64 0
w 75 74 65 0
w 75 74 -65 0
w 75 -74 65 0
w 75 -74 -65 1
w 76 75 66 0
w 76 75 -66 1
w 76 -75 66 1
w 76 -75 -66 0
w 77 76 67 0.0392664
w 77 76 -67 0.0140598
w 77 -76 67 0.687289
w 77 -76 -67 0.307637
w 78 77 68 1
w 78 77 -68 0
w 78 -77 68 1
w 78 -77 -68 0
w 79 78 69 0
w 79 78 -69 1
w 79 -78 69 0
w 79 -78 -69 0
w 80 79 70 0.0721308
w 80 79 -70 0.2935
w 80 -79 70 0.51676
w 80 -79 -70 0.402724
w 81 71 0.567802
w 81 -71 0.464564
w 82 81 72 1
w 82 81 -72 1
w 82 -81 72 0
w 82 -81 -72 1
w 83 82 73 0
w 83 82 -73 1
w 83 -82 73 1
w 83 -82 -73 1
w 84 83 74 0
w 84 83 -74 1
w 84 -83 74 0
w 84 -83 -74 0
w 85 84 75 0
w 85 84 -75 0
w 85 -84 75 1
w 85 -84 -75 0
w 86 85 76 0.305446
w 86 85 -76 0.238897
w 86 -85 76 0.901641
w 86 -85 -76 0.598946
w 87 86 77 0.304365
w 87 86 -77 0.546956
w 87 -86 77 0.32346
w 87 -86 -77 0.768929
w 88 87 78 0.238004
w 88 87 -78 0.705435
w 88 -87 78 0.971245
w 88 -87 -78 0.358962
w 89 88 79 1
w 89 88 -79 0
w 89 -88 79 0
w 89 -88 -79 0
w 90 89 80 1
w 90 89 -80 0
w 90 -89 80 0
w 90 -89 -80 1
w 91 81 1
w 91 -81 0
w 92 91 82 1
w 92 91 -82 0
w 92 -91 82 0
w 92 -91 -82 1
w 93 92 83 0.533536
w 93 92 -83 0.34808
w 93 -92 83 0.449966
w 93 -92 -83 0.289194
w 94 93 84 1
w 94 93 -84 0
w 94 -93 84 1
w 94 -93 -84 0
w 95 94 85 0.126808
w 95 94 -85 0.94286
w 95 -94 85 0.20962
w 95 -94 -85 0.729695
w 96 95 86 1
w 96 95 -86 1
w 96 -95 86 0
w 96 -95 -86 0
w 97 96 87 1
w 97 96 -87 0
w 97 -96 87 0
w 97 -96 -87 0
w 98 97 88 0.329688
w 98 97 -88 0.169132
w 98 -97 88 0.312255
w 98 -97 -88 0.624326
w 99 98 89 0
w 99 98 -89 1
w 99 -98 89 1
w 99 -98 -89 0
w 100 99 90 0
w 100 99 -90 1
w 100 -99 90 0
w 100 -99 -90 1